(set-logic QF_LRA)
(push 1)
(check-sat)
(pop 1)
(push 1)
(check-sat)
(pop 1)
(check-sat)
(assert false)
(check-sat)
(check-sat)
(push 1)
(check-sat)
(push 1)
(push 1)
(check-sat)
(check-sat)
(pop 1)
(assert true)
(check-sat)
(push 1)
(check-sat)
(push 1)
(check-sat)
(assert true)
(check-sat)
(assert true)
(check-sat)
(push 1)
(check-sat)
(push 1)
(check-sat)
(assert true)
(check-sat)
(check-sat)
